Data path: /scratch/opt/lxu/CFLG/benchmarks/Kgroup_A
Instance: K100.5.con.red
Result path: /scratch/opt/lxu/CFLG/results/Kgroup_A
Solver: Gurobi
Time limit: 7200
Formulation: EFP
Cover: Large
julia --project=. src/main.jl /scratch/opt/lxu/CFLG/benchmarks/Kgroup_A K100.5.con.red /scratch/opt/lxu/CFLG/results/Kgroup_A Gurobi 7200 EFP Large
The latest version of Julia in the `release` channel is 1.11.5+0.x64.linux.gnu. You currently have `1.11.4+0.x64.linux.gnu` installed. Run:

  juliaup update

in your terminal shell to install Julia 1.11.5+0.x64.linux.gnu and update the `release` channel to that version.
/scratch/opt/lxu/CFLG/benchmarks/Kgroup_A Gurobi 7200.0 /scratch/opt/lxu/CFLG/results/Kgroup_A K100.5.con.red EFP Large
/scratch/opt/lxu/CFLG/benchmarks/Kgroup_A/K100.5.con.red

 read graph
data loaded


after absorb:31 31

max_piece:3
problem_graph/original graph: node: 39/31 edge: 128/120 dlt: 0.3835273439484856 break_avg_len: 0.17977844247585278 break_max_len: 0.3778633888111307elapsed CPU time: 0.039369 seconds
Set parameter TokenServer to value "solice01.zib.de"
Set parameter Threads to value 1
Set parameter OutputFlag to value 1
Set parameter MIPGap to value 0.0001
Set parameter MIPGapAbs to value 1
Set parameter TimeLimit to value 7199.960631

 more cuts:falsefalse
0 0
formulation:EFP0 128 39

 model loaded

Gurobi Optimizer version 12.0.1 build v12.0.1rc0 (linux64 - "Debian GNU/Linux 12 (bookworm)")

CPU model: Intel(R) Xeon(R) Gold 5222 CPU @ 3.80GHz, instruction set [SSE2|AVX|AVX2|AVX512]
Thread count: 8 physical cores, 16 logical processors, using up to 1 threads

Non-default parameters:
TimeLimit  7199.960631
MIPGapAbs  1
Threads  1

Optimize a model with 9123 rows, 4642 columns and 27046 nonzeros
Model fingerprint: 0x984200a6
Variable types: 295 continuous, 4347 integer (4347 binary)
Coefficient statistics:
  Matrix range     [1e-06, 1e+00]
  Objective range  [1e+00, 1e+00]
  Bounds range     [2e-02, 4e-01]
  RHS range        [2e-02, 1e+01]
Found heuristic solution: objective 62.0000000
Presolve removed 2169 rows and 283 columns
Presolve time: 0.08s
Presolved: 6954 rows, 4359 columns, 23927 nonzeros
Variable types: 167 continuous, 4192 integer (4192 binary)

Root relaxation: objective 1.530771e+00, 3205 iterations, 0.10 seconds (0.19 work units)

    Nodes    |    Current Node    |     Objective Bounds      |     Work
 Expl Unexpl |  Obj  Depth IntInf | Incumbent    BestBd   Gap | It/Node Time

     0     0    1.53077    0  220   62.00000    1.53077  97.5%     -    0s
H    0     0                      28.0000000    1.53077  94.5%     -    0s
H    0     0                      17.0000000    1.53077  91.0%     -    0s
H    0     0                      16.0000000    1.53077  90.4%     -    0s
H    0     0                      14.0000000    1.53077  89.1%     -    0s
H    0     0                      13.0000000    1.53077  88.2%     -    0s
H    0     0                      12.0000000    1.53077  87.2%     -    0s
H    0     0                      11.0000000    1.53077  86.1%     -    0s
     0     0    2.57751    0  304   11.00000    2.57751  76.6%     -    0s
H    0     0                      10.0000000    2.64347  73.6%     -    0s
H    0     0                       9.0000000    2.64347  70.6%     -    0s
     0     0    2.84863    0  311    9.00000    2.84863  68.3%     -    0s
     0     0    2.84863    0  311    9.00000    2.84863  68.3%     -    0s
     0     0    3.77314    0  288    9.00000    3.77314  58.1%     -    1s
H    0     0                       8.0000000    3.79473  52.6%     -    1s
     0     0    3.79473    0  290    8.00000    3.79473  52.6%     -    1s
     0     0    4.46875    0  215    8.00000    4.46875  44.1%     -    1s
     0     0    4.50000    0  168    8.00000    4.50000  43.8%     -    1s
     0     0    4.50000    0  152    8.00000    4.50000  43.8%     -    1s
     0     0    4.50000    0  149    8.00000    4.50000  43.8%     -    1s
     0     0    4.50000    0  145    8.00000    4.50000  43.8%     -    1s
     0     0    4.50000    0  148    8.00000    4.50000  43.8%     -    1s
     0     0    4.50000    0  145    8.00000    4.50000  43.8%     -    1s
     0     0    4.50000    0  120    8.00000    4.50000  43.7%     -    1s
     0     0    4.52905    0  217    8.00000    4.52905  43.4%     -    1s
     0     0    4.52905    0  226    8.00000    4.52905  43.4%     -    1s
     0     0    4.52918    0  192    8.00000    4.52918  43.4%     -    1s
     0     0    4.54658    0  204    8.00000    4.54658  43.2%     -    2s
     0     0    4.54658    0  212    8.00000    4.54658  43.2%     -    2s
     0     0    4.54658    0  213    8.00000    4.54658  43.2%     -    2s
     0     0    4.54658    0  208    8.00000    4.54658  43.2%     -    2s
     0     0    4.54658    0  214    8.00000    4.54658  43.2%     -    2s
     0     0    4.55345    0  224    8.00000    4.55345  43.1%     -    2s
     0     0    4.56964    0  242    8.00000    4.56964  42.9%     -    2s
     0     0    4.57002    0  240    8.00000    4.57002  42.9%     -    2s
     0     0    4.59763    0  229    8.00000    4.59763  42.5%     -    2s
     0     0    4.65233    0  223    8.00000    4.65233  41.8%     -    2s
     0     0    4.65714    0  215    8.00000    4.65714  41.8%     -    2s
     0     0    4.65844    0  247    8.00000    4.65844  41.8%     -    2s
     0     0    4.65867    0  248    8.00000    4.65867  41.8%     -    2s
     0     0    4.75694    0  229    8.00000    4.75694  40.5%     -    2s
     0     0    4.76667    0  216    8.00000    4.76667  40.4%     -    2s
     0     0    4.79807    0  233    8.00000    4.79807  40.0%     -    2s
     0     0    4.82511    0  240    8.00000    4.82511  39.7%     -    2s
     0     0    4.82511    0  212    8.00000    4.82511  39.7%     -    2s
     0     0    4.82511    0  252    8.00000    4.82511  39.7%     -    2s
     0     0    4.82511    0  256    8.00000    4.82511  39.7%     -    2s
     0     0    4.86465    0  180    8.00000    4.86465  39.2%     -    2s
     0     2    4.86465    0  172    8.00000    4.86465  39.2%     -    3s
   177   144    6.16583   46   87    8.00000    4.96875  37.9%   118    5s
   609   454    5.46014    8  180    8.00000    5.14851  35.6%  93.1   12s
   627   466    6.22692   11  298    8.00000    5.26961  34.1%  90.4   15s
H  644   452                       7.0000000    5.34784  23.6%  88.1   18s
   652   458    6.79355   32  424    7.00000    5.37289  23.2%  87.0   20s
   878   405    5.66396   18  308    7.00000    5.56117  20.6%   177   25s

Cutting planes:
  Lift-and-project: 4
  Cover: 27
  Implied bound: 5
  MIR: 10
  StrongCG: 2
  Flow cover: 40
  GUB cover: 37
  Zero half: 39
  RLT: 5
  Relax-and-lift: 6
  BQP: 2

Explored 994 nodes (204872 simplex iterations) in 27.04 seconds (30.89 work units)
Thread count was 1 (of 16 available processors)

Solution count 10: 7 8 8 ... 13

Optimal solution found (tolerance 1.00e-04)
Best objective 7.000000000000e+00, best bound 6.000000000000e+00, gap 14.2857%

User-callback calls 9558, time in user-callback 0.01 sec

 sepatime0
7.0Stat(MathOptInterface.OPTIMAL, 7.0, 6.000000000000001, 0.14285714285714274, 0.0, 0.039369, 27.037222862243652, 994, Main.CFLG.EFP, "", #undef)
